p cnf 9 27
2 5 -2 6 0
9 3 -2 7 0
8 1 3 -3 0
2 5 -3 -9 0
2 -3 0
2 0
-5 -2 0
-2 -1 6 0
9 3 0
-4 5 -2 0
1 2 -3 0
-4 -3 -1 0
-8 2 -1 6 0
-8 -3 -1 6 0
-5 -1 7 0
1 3 -7 0
-6 4 -2 6 0
-9 0
-6 4 -2 7 0
-7 2 -2 0
8 0
2 5 6 0
2 3 -9 0
9 2 5 1 0
8 9 -8 0
8 4 -3 -2 0
9 6 0
